NAME: tsp10_15
COMMENT: 10-tsp problem (Padberg/Rinaldi)
TYPE: TSP
DIMENSION: 10
EDGE_WEIGHT_TYPE : EUC_2D
NODE_COORD_SECTION
1 37 39
2 31 11
3 22 6
4 18 18
5 27 40
6 12 5
7 26 6
8 14 23
9 17 39
10 32 4
